\ENCODING=ISO-8859-1
\Problem name: 

Minimize
 obj: x1 + x2 + x3 + x4 + x5 + x6 + x7 + x8 + x9 + x10 + x11 + x12 + 2 x13
      + 2 x14 + 2 x15 + 2 x16 + 2 x17 + 2 x18 + 2 x19 + 2 x20 + 2 x21 + 2 x22
      + 2 x23 + 3 x24 + 3 x25 + 3 x26 + 3 x27 + 3 x28 + 3 x29 + 3 x30 + 3 x31
      + 3 x32 + 3 x33 + 3 x34 + 3 x35 + 3 x36 + 3 x37 + 3 x38 + 3 x39 + 3 x40
      + 4 x41 + 4 x42 + 4 x43 + 4 x44 + 4 x45 + 4 x46 + 4 x47 + 5 x48 + 5 x49
      + 5 x50 + 5 x51 + 5 x52 + 5 x53 + 5 x54 + 6 x55 + 6 x56 + 6 x57 + 6 x58
      + 6 x59 + 6 x60 + 6 x61 + 7 x62 + 7 x63 + 7 x64 + 7 x65 + 7 x66 + 7 x67
      + 7 x68 + 7 x69 + 7 x70 + 7 x71 + 7 x72 + 7 x73 + 7 x74 + 7 x75 + 7 x76
      + 7 x77 + 8 x78 + 8 x79 + 8 x80 + 8 x81 + 8 x82 + 8 x83 + 8 x84 + 8 x85
      + 8 x86 + 8 x87 + 8 x88 + 9 x89 + 9 x90 + 9 x91 + 9 x92 + 9 x93 + 9 x94
      + 9 x95 + 10 x96 + 10 x97 + 10 x98 + 10 x99 + 10 x100 + 10 x101 + 11 x102
      + 11 x103 + 11 x104 + 11 x105 + 11 x106 + 11 x107 + 11 x108 + 11 x109
      + 11 x110 + 12 x111 + 12 x112 + 12 x113 + 12 x114 + 13 x115 + 13 x116
      + 13 x117 + 13 x118 + 13 x119 + 14 x120 + 14 x121 + 14 x122 + 14 x123
      + 14 x124 + 14 x125 + 15 x126 + 15 x127 + 15 x128 + 15 x129 + 16 x130
      + 16 x131 + 16 x132 + 16 x133 + 16 x134 + 16 x135 + 16 x136 + 17 x137
      + 17 x138 + 17 x139 + 17 x140 + 17 x141 + 18 x142 + 18 x143 + 18 x144
      + 18 x145 + 19 x146 + 19 x147 + 19 x148 + 20 x149 + 20 x150 + 20 x151
      + 20 x152 + 21 x153 + 22 x154 + 22 x155 + 22 x156 + 25 x157 + 25 x158
      + 25 x159 + 26 x160 + 26 x161 + 27 x162 + 27 x163 + 28 x164 + 29 x165
      + 30 x166 + 32 x167 + 33 x168 + 33 x169 + 33 x170 + 35 x171 + 36 x172
      + 36 x173 + 37 x174 + 37 x175 + 38 x176 + 39 x177 + 39 x178 + 40 x179
      + 49 x180
Subject To
 c1:   x63 + x76 + x104 + x116 + x132 + x135 + x164 >= 1
 c2:   x1 + x25 + x73 + x114 + x129 + x149 + x162 + x173 >= 1
 c3:   x25 + x31 + x173 >= 1
 c4:   x61 + x157 + x174 + x176 >= 1
 c5:   x4 + x82 + x133 + x150 + x157 >= 1
 c6:   x10 + x68 + x120 >= 1
 c7:   x158 + x161 + x163 + x174 + x175 + x178 + x180 >= 1
 c8:   x1 + x68 >= 1
 c9:   x68 + x137 + x162 >= 1
 c10:  x8 + x11 + x46 + x48 + x55 + x67 + x102 + x174 >= 1
 c11:  x12 + x111 + x119 + x120 + x127 >= 1
 c12:  x28 + x35 + x91 + x126 >= 1
 c13:  x152 + x156 + x178 + x180 >= 1
 c14:  x45 + x120 + x150 >= 1
 c15:  x18 + x41 + x105 >= 1
 c16:  x36 + x43 + x48 + x67 + x103 >= 1
 c17:  x22 + x62 >= 1
 c18:  x85 + x96 + x120 + x158 + x174 >= 1
 c19:  x93 + x103 + x142 + x160 + x162 >= 1
 c20:  x8 + x28 + x59 + x104 >= 1
 c21:  x10 + x32 + x36 + x169 >= 1
 c22:  x26 + x97 + x163 + x175 >= 1
 c23:  x22 + x42 + x63 + x85 + x151 >= 1
 c24:  x44 + x117 >= 1
 c25:  x48 + x83 + x124 + x128 + x161 >= 1
 c26:  x56 + x79 + x115 + x121 + x154 + x160 >= 1
 c27:  x103 + x179 >= 1
 c28:  x78 + x102 + x170 >= 1
 c29:  x52 + x87 + x108 + x132 + x165 >= 1
 c30:  x62 + x125 + x127 + x129 + x149 >= 1
 c31:  x58 + x71 + x91 + x118 + x166 >= 1
 c32:  x26 + x65 + x91 + x146 + x148 >= 1
 c33:  x33 + x37 + x40 + x59 + x60 >= 1
 c34:  x14 + x15 + x24 + x158 + x175 >= 1
 c35:  x103 + x109 + x148 + x154 + x156 >= 1
 c36:  x4 + x6 + x89 + x176 >= 1
 c37:  x51 + x117 + x141 + x171 + x175 >= 1
 c38:  x19 + x99 >= 1
 c39:  x20 + x55 + x133 + x138 >= 1
 c40:  x54 + x97 >= 1
 c41:  x5 + x99 + x102 + x133 + x151 >= 1
 c42:  x8 + x79 + x136 >= 1
 c43:  x51 + x62 + x137 + x142 + x171 >= 1
 c44:  x24 + x57 + x63 + x115 + x128 + x131 + x157 >= 1
 c45:  x42 + x55 >= 1
 c46:  x16 + x139 >= 1
 c47:  x3 + x58 + x118 + x146 >= 1
 c48:  x44 + x136 >= 1
 c49:  x27 + x34 + x61 >= 1
 c50:  x25 + x36 + x112 >= 1
 c51:  x26 + x144 + x149 + x171 >= 1
 c52:  x49 + x57 + x71 + x88 + x179 >= 1
 c53:  x48 + x53 + x83 + x90 >= 1
 c54:  x55 + x63 + x78 + x83 + x146 >= 1
 c55:  x50 + x98 >= 1
 c56:  x80 + x150 + x164 + x166 + x180 >= 1
 c57:  x3 + x64 + x179 >= 1
 c58:  x7 + x65 + x82 + x92 + x99 + x180 >= 1
 c59:  x15 + x62 + x78 + x107 + x120 >= 1
 c60:  x1 + x2 + x115 >= 1
 c61:  x27 + x140 + x144 >= 1
 c62:  x81 + x89 + x101 >= 1
 c63:  x49 + x51 + x74 + x75 + x178 >= 1
 c64:  x50 + x70 + x117 + x149 >= 1
 c65:  x82 + x98 + x115 + x120 + x122 + x123 >= 1
 c66:  x90 + x126 + x140 + x157 >= 1
 c67:  x50 + x96 + x176 >= 1
 c68:  x7 + x15 + x62 + x86 + x116 + x131 + x155 >= 1
 c69:  x21 + x43 + x97 + x104 + x135 >= 1
 c70:  x18 + x83 + x136 + x165 >= 1
 c71:  x26 + x53 + x66 + x106 >= 1
 c72:  x16 + x31 + x131 + x134 + x135 + x157 >= 1
 c73:  x19 + x28 + x58 + x91 + x128 + x142 >= 1
 c74:  x28 + x63 + x105 + x117 >= 1
 c75:  x79 + x176 >= 1
 c76:  x98 + x100 + x179 >= 1
 c77:  x1 + x79 + x112 >= 1
 c78:  x24 + x52 + x71 + x79 + x86 + x126 + x134 >= 1
 c79:  x48 + x62 + x71 + x108 + x150 + x164 + x172 >= 1
 c80:  x27 >= 1
 c81:  x2 + x37 + x113 >= 1
 c82:  x95 + x160 >= 1
 c83:  x13 + x22 + x35 + x38 + x97 + x138 + x147 + x165 >= 1
 c84:  x112 + x171 + x179 >= 1
 c85:  x74 + x140 + x164 >= 1
 c86:  x126 + x165 >= 1
 c87:  x29 + x30 + x103 + x174 >= 1
 c88:  x17 + x119 >= 1
 c89:  x61 + x73 >= 1
 c90:  x9 + x12 + x20 + x25 + x64 + x78 + x154 + x155 + x168 >= 1
 c91:  x13 + x34 + x94 + x103 >= 1
 c92:  x47 + x58 + x92 + x146 + x160 >= 1
 c93:  x21 + x31 + x149 >= 1
 c94:  x7 + x66 + x96 + x130 >= 1
 c95:  x51 + x124 >= 1
 c96:  x1 + x80 + x81 + x156 + x165 + x166 >= 1
 c97:  x72 + x93 + x96 + x121 + x126 + x132 >= 1
 c98:  x7 + x30 + x39 + x81 >= 1
 c99:  x35 + x85 + x168 >= 1
 c100: x40 + x46 + x57 + x69 + x88 >= 1
 c101: x60 + x84 + x92 + x116 + x139 >= 1
 c102: x50 + x60 >= 1
 c103: x104 + x129 + x130 + x136 >= 1
 c104: x62 + x160 >= 1
 c105: x25 + x172 + x180 >= 1
 c106: x154 + x159 + x168 + x170 + x172 >= 1
 c107: x64 + x78 + x95 + x122 + x153 + x159 + x180 >= 1
 c108: x1 + x113 + x146 + x158 + x173 >= 1
 c109: x23 + x104 + x117 >= 1
 c110: x32 + x48 >= 1
 c111: x14 + x17 >= 1
 c112: x5 + x13 + x41 + x80 + x84 + x95 + x138 >= 1
 c113: x13 + x29 + x135 >= 1
 c114: x103 + x107 + x144 + x153 >= 1
 c115: x130 + x162 + x176 >= 1
 c116: x52 + x60 + x67 + x78 + x99 + x145 + x146 >= 1
 c117: x83 + x132 >= 1
 c118: x48 + x134 + x142 + x166 + x177 >= 1
 c119: x14 + x27 + x43 + x108 + x147 >= 1
 c120: x56 + x79 + x97 + x125 + x137 + x159 >= 1
 c121: x14 + x16 + x70 + x90 + x102 + x137 + x149 >= 1
 c122: x106 + x110 + x154 + x169 + x177 >= 1
 c123: x69 + x74 + x114 + x145 + x150 + x153 + x156 >= 1
 c124: x127 + x143 + x150 + x151 + x155 + x169 + x177 >= 1
 c125: x33 + x70 >= 1
 c126: x18 + x57 + x148 >= 1
 c127: x17 + x64 + x166 + x168 + x179 >= 1
 c128: x86 + x96 + x132 + x153 >= 1
 c129: x3 + x14 + x49 + x122 >= 1
 c130: x44 + x59 + x102 + x134 + x172 >= 1
 c131: x30 + x81 + x84 >= 1
 c132: x44 + x89 + x101 + x111 + x167 + x172 >= 1
 c133: x55 + x128 + x138 + x143 >= 1
 c134: x89 + x109 + x146 + x167 >= 1
 c135: x41 + x42 + x68 + x93 + x118 + x173 >= 1
 c136: x4 + x72 + x120 + x139 >= 1
 c137: x54 + x69 + x107 >= 1
 c138: x53 + x64 + x65 + x137 >= 1
 c139: x9 + x34 + x121 + x123 + x149 >= 1
 c140: x6 + x41 + x91 >= 1
 c141: x27 + x51 + x88 + x104 >= 1
 c142: x3 + x164 >= 1
 c143: x23 + x29 + x99 >= 1
 c144: x90 + x130 + x147 >= 1
 c145: x87 + x105 + x147 >= 1
 c146: x57 + x105 + x125 + x148 + x173 + x174 >= 1
 c147: x102 + x115 + x141 >= 1
 c148: x27 + x100 + x158 >= 1
 c149: x24 + x76 + x92 + x127 >= 1
 c150: x15 + x47 + x48 + x56 + x61 + x66 + x111 + x176 >= 1
 c151: x94 + x106 + x111 + x112 + x162 + x173 >= 1
 c152: x42 + x142 + x143 + x147 + x154 + x174 >= 1
 c153: x26 + x80 + x115 >= 1
 c154: x38 + x45 + x54 + x66 + x166 >= 1
 c155: x60 >= 1
 c156: x63 + x75 >= 1
 c157: x16 + x33 + x120 >= 1
 c158: x2 + x96 + x110 + x130 >= 1
 c159: x67 + x120 + x131 + x167 >= 1
 c160: x123 + x169 + x171 + x177 >= 1
 c161: x4 + x30 >= 1
 c162: x26 + x66 + x145 + x155 >= 1
 c163: x42 + x59 + x87 + x158 >= 1
 c164: x94 + x177 >= 1
 c165: x3 + x122 + x131 + x152 >= 1
 c166: x6 + x89 + x130 + x131 + x172 >= 1
 c167: x119 + x121 + x138 + x146 + x167 + x170 + x176 >= 1
 c168: x9 + x10 + x98 >= 1
 c169: x5 >= 1
 c170: x65 + x155 + x163 >= 1
 c171: x6 + x9 + x41 + x142 >= 1
 c172: x24 + x39 + x46 + x56 + x72 + x81 + x101 + x130 + x156 >= 1
 c173: x32 + x49 + x69 >= 1
 c174: x17 + x56 + x59 + x69 >= 1
 c175: x19 + x70 + x81 + x89 + x112 + x124 + x144 >= 1
 c176: x5 + x8 + x29 + x62 + x120 + x130 + x160 >= 1
 c177: x20 + x24 + x64 >= 1
 c178: x68 >= 1
 c179: x24 + x79 + x124 >= 1
 c180: x139 >= 1
 c181: x21 + x82 + x100 >= 1
 c182: x65 + x164 + x173 >= 1
 c183: x80 + x135 >= 1
 c184: x113 + x118 + x157 + x166 >= 1
 c185: x77 + x78 + x139 + x150 + x168 + x175 >= 1
 c186: x56 + x73 + x140 + x141 >= 1
 c187: x25 + x43 + x49 + x105 + x157 >= 1
 c188: x4 + x49 + x57 + x155 >= 1
 c189: x45 + x90 + x98 + x131 + x161 + x167 >= 1
 c190: x31 + x55 + x72 + x165 + x172 >= 1
 c191: x80 + x113 + x114 + x133 >= 1
 c192: x67 + x113 + x134 + x172 + x173 >= 1
 c193: x75 >= 1
 c194: x2 + x137 + x142 + x177 >= 1
 c195: x48 + x100 + x116 + x126 >= 1
 c196: x106 + x109 + x121 + x165 >= 1
 c197: x13 + x50 + x82 + x102 + x116 + x141 >= 1
 c198: x58 + x123 + x133 + x148 >= 1
 c199: x45 + x143 + x145 + x151 + x171 >= 1
 c200: x2 + x11 + x70 + x84 + x111 + x162 + x172 + x174 >= 1
Bounds
 0 <= x1 <= 1
 0 <= x2 <= 1
 0 <= x3 <= 1
 0 <= x4 <= 1
 0 <= x5 <= 1
 0 <= x6 <= 1
 0 <= x7 <= 1
 0 <= x8 <= 1
 0 <= x9 <= 1
 0 <= x10 <= 1
 0 <= x11 <= 1
 0 <= x12 <= 1
 0 <= x13 <= 1
 0 <= x14 <= 1
 0 <= x15 <= 1
 0 <= x16 <= 1
 0 <= x17 <= 1
 0 <= x18 <= 1
 0 <= x19 <= 1
 0 <= x20 <= 1
 0 <= x21 <= 1
 0 <= x22 <= 1
 0 <= x23 <= 1
 0 <= x24 <= 1
 0 <= x25 <= 1
 0 <= x26 <= 1
 0 <= x27 <= 1
 0 <= x28 <= 1
 0 <= x29 <= 1
 0 <= x30 <= 1
 0 <= x31 <= 1
 0 <= x32 <= 1
 0 <= x33 <= 1
 0 <= x34 <= 1
 0 <= x35 <= 1
 0 <= x36 <= 1
 0 <= x37 <= 1
 0 <= x38 <= 1
 0 <= x39 <= 1
 0 <= x40 <= 1
 0 <= x41 <= 1
 0 <= x42 <= 1
 0 <= x43 <= 1
 0 <= x44 <= 1
 0 <= x45 <= 1
 0 <= x46 <= 1
 0 <= x47 <= 1
 0 <= x48 <= 1
 0 <= x49 <= 1
 0 <= x50 <= 1
 0 <= x51 <= 1
 0 <= x52 <= 1
 0 <= x53 <= 1
 0 <= x54 <= 1
 0 <= x55 <= 1
 0 <= x56 <= 1
 0 <= x57 <= 1
 0 <= x58 <= 1
 0 <= x59 <= 1
 0 <= x60 <= 1
 0 <= x61 <= 1
 0 <= x62 <= 1
 0 <= x63 <= 1
 0 <= x64 <= 1
 0 <= x65 <= 1
 0 <= x66 <= 1
 0 <= x67 <= 1
 0 <= x68 <= 1
 0 <= x69 <= 1
 0 <= x70 <= 1
 0 <= x71 <= 1
 0 <= x72 <= 1
 0 <= x73 <= 1
 0 <= x74 <= 1
 0 <= x75 <= 1
 0 <= x76 <= 1
 0 <= x77 <= 1
 0 <= x78 <= 1
 0 <= x79 <= 1
 0 <= x80 <= 1
 0 <= x81 <= 1
 0 <= x82 <= 1
 0 <= x83 <= 1
 0 <= x84 <= 1
 0 <= x85 <= 1
 0 <= x86 <= 1
 0 <= x87 <= 1
 0 <= x88 <= 1
 0 <= x89 <= 1
 0 <= x90 <= 1
 0 <= x91 <= 1
 0 <= x92 <= 1
 0 <= x93 <= 1
 0 <= x94 <= 1
 0 <= x95 <= 1
 0 <= x96 <= 1
 0 <= x97 <= 1
 0 <= x98 <= 1
 0 <= x99 <= 1
 0 <= x100 <= 1
 0 <= x101 <= 1
 0 <= x102 <= 1
 0 <= x103 <= 1
 0 <= x104 <= 1
 0 <= x105 <= 1
 0 <= x106 <= 1
 0 <= x107 <= 1
 0 <= x108 <= 1
 0 <= x109 <= 1
 0 <= x110 <= 1
 0 <= x111 <= 1
 0 <= x112 <= 1
 0 <= x113 <= 1
 0 <= x114 <= 1
 0 <= x115 <= 1
 0 <= x116 <= 1
 0 <= x117 <= 1
 0 <= x118 <= 1
 0 <= x119 <= 1
 0 <= x120 <= 1
 0 <= x121 <= 1
 0 <= x122 <= 1
 0 <= x123 <= 1
 0 <= x124 <= 1
 0 <= x125 <= 1
 0 <= x126 <= 1
 0 <= x127 <= 1
 0 <= x128 <= 1
 0 <= x129 <= 1
 0 <= x130 <= 1
 0 <= x131 <= 1
 0 <= x132 <= 1
 0 <= x133 <= 1
 0 <= x134 <= 1
 0 <= x135 <= 1
 0 <= x136 <= 1
 0 <= x137 <= 1
 0 <= x138 <= 1
 0 <= x139 <= 1
 0 <= x140 <= 1
 0 <= x141 <= 1
 0 <= x142 <= 1
 0 <= x143 <= 1
 0 <= x144 <= 1
 0 <= x145 <= 1
 0 <= x146 <= 1
 0 <= x147 <= 1
 0 <= x148 <= 1
 0 <= x149 <= 1
 0 <= x150 <= 1
 0 <= x151 <= 1
 0 <= x152 <= 1
 0 <= x153 <= 1
 0 <= x154 <= 1
 0 <= x155 <= 1
 0 <= x156 <= 1
 0 <= x157 <= 1
 0 <= x158 <= 1
 0 <= x159 <= 1
 0 <= x160 <= 1
 0 <= x161 <= 1
 0 <= x162 <= 1
 0 <= x163 <= 1
 0 <= x164 <= 1
 0 <= x165 <= 1
 0 <= x166 <= 1
 0 <= x167 <= 1
 0 <= x168 <= 1
 0 <= x169 <= 1
 0 <= x170 <= 1
 0 <= x171 <= 1
 0 <= x172 <= 1
 0 <= x173 <= 1
 0 <= x174 <= 1
 0 <= x175 <= 1
 0 <= x176 <= 1
 0 <= x177 <= 1
 0 <= x178 <= 1
 0 <= x179 <= 1
 0 <= x180 <= 1
Binaries
 x1  x2  x3  x4  x5  x6  x7  x8  x9  x10  x11  x12  x13  x14  x15  x16  x17 
 x18  x19  x20  x21  x22  x23  x24  x25  x26  x27  x28  x29  x30  x31  x32 
 x33  x34  x35  x36  x37  x38  x39  x40  x41  x42  x43  x44  x45  x46  x47 
 x48  x49  x50  x51  x52  x53  x54  x55  x56  x57  x58  x59  x60  x61  x62 
 x63  x64  x65  x66  x67  x68  x69  x70  x71  x72  x73  x74  x75  x76  x77 
 x78  x79  x80  x81  x82  x83  x84  x85  x86  x87  x88  x89  x90  x91  x92 
 x93  x94  x95  x96  x97  x98  x99  x100  x101  x102  x103  x104  x105  x106 
 x107  x108  x109  x110  x111  x112  x113  x114  x115  x116  x117  x118  x119 
 x120  x121  x122  x123  x124  x125  x126  x127  x128  x129  x130  x131  x132 
 x133  x134  x135  x136  x137  x138  x139  x140  x141  x142  x143  x144  x145 
 x146  x147  x148  x149  x150  x151  x152  x153  x154  x155  x156  x157  x158 
 x159  x160  x161  x162  x163  x164  x165  x166  x167  x168  x169  x170  x171 
 x172  x173  x174  x175  x176  x177  x178  x179  x180 
End
